8 7 6 5 4 30 3 29 28 27 26 25 24 23 22 21 20 19 18 17 2 9 339 325 311 12 619 605 591 13 675 549 54 10 633 717 647 689 731 15 745 661 31 703 14 773 759 269 787 395 626 68 738 50 843 668 227 57 213 11 58 710 409 360 262 65 39 829 35 577 584 542 563 899 16 752 353 42 36 44 521 507 40 451 381 43 34 41 38 37 493 535 857 724 465 423 598 47 612 361 382 48 766 556 682 613 55 51 52 620 640 49 56 46 33 885 871 696 654 500 82 585 780 502 627 390 753 62 61 69 669 60 528 486 781 697 655 739 72 59 570 45 66 362 222 53 850 830 628 530 516 767 599 514 501 363 479 515 472 683 529 754 70 670 740 698 487 782 586 63 614 71 671 460 755 64 488 543 474 727 600 685 544 572 558 769 768 712 733 641 617 503 473 642 684 609 571 595 497 469 623 483 581 511 665 637 545 630 539 693 679 525 651 567 553 618 624 764 588 616 610 589 603 602 396 557 707 364 672 686 644 546 518 504 505 801 519 778 783 699 631 629 531 96 771 673 596 694 512 526 741 757 792 736 638 666 498 582 708 540 547 750 715 392 656 652 722 32 437 484 756 615 573 559 735 470 554 568 777 763 657 658 532 785 645 561 659 743 533 477 700 680 701 687 476 560 574 575 491 490 726 404 215 815 459 403 463 462 458 461 643 314 412 489 784 742 749 517 770 475 729 728 721 711 601 523 509 795 794 538 496 791 622 413 265 264 411 67 510 393 365 664 636 524 650 478 492 482 468 552 356 580 566 312 263 537 851 713 495 621 321 320 315 313 594 608 418 410 419 417 414 394 408 398 384 310 481 565 385 391 389 607 734 706 692 388 796 386 261 776 790 748 400 399 78 370 407 402 822 359 316 358 318 762 844 163 646 520 852 772 730 604 367 75 405 406 383 808 714 725 534 506 758 632 590 375 374 372 371 368 366 842 660 786 744 678 702 688 562 548 674 840 416 283 587 809 583 541 499 823 667 625 864 377 892 824 894 865 893 709 797 716 798 751 378 241 878 906 76 83 86 369 319 322 74 879 84 485 471 907 903 908 85 80 895 867 833 910 875 805 904 597 513 819 889 527 839 834 848 639 890 611 880 876 881 882 868 866 841 681 862 653 820 825 799 810 812 811 806 467 454 456 455 464 896 421 420 897 869 555 457 888 883 874 826 818 415 827 813 765 723 807 779 909 737 695 832 837 838 836 380 902 401 387 804 376 373 357 355 348 349 747 336 335 334 292 821 814 635 579 433 199 432 431 426 428 434 427 720 446 448 447 445 441 442 440 449 444 435 430 397 379 691 332 328 350 342 346 343 329 327 333 347 705 341 344 330 789 775 267 165 164 317 803 800 802 323 337 761 663 593 677 453 324 338 297 266 911 905 293 877 863 891 351 884 887 873 846 551 436 429 422 352 450 443 855 845 331 817 345 870 847 690 649 774 648 439 425 898 912 793 291 886 872 221 853 854 835 828 849 816 704 676 831 306 592 522 480 212 494 466 305 304 290 788 760 719 662 634 536 508 438 452 424 564 550 185 214 171 732 569 901 303 309 308 307 861 860 301 300 299 289 302 295 294 288 287 1 93 91 900 89 856 576 277 268 249 248 237 236 235 216 208 207 193 179 136 129 73 81 746 578 255 250 194 279 223 180 175 157 296 859 99 98 97 95 94 92 90 88 87 858 79 77 718 354 340 326 298 286 285 284 282 281 280 278 276 275 274 273 272 271 270 260 259 258 257 256 254 253 252 251 247 246 245 244 243 242 240 239 238 234 233 232 231 230 229 228 226 225 224 220 219 218 217 211 210 209 206 205 204 203 202 201 200 198 197 196 192 191 190 189 188 187 186 184 183 182 181 178 177 176 174 173 172 170 169 168 167 166 162 161 160 159 158 156 155 154 153 152 151 150 149 148 147 146 145 144 143 142 141 140 139 138 137 135 134 133 132 131 130 128 127 126 125 124 123 122 121 120 119 118 117 116 115 114 113 112 111 110 109 108 107 106 105 104 103 102 101 100 195 606 1632 999 998 997 996 995 994 993 992 991 990 989 988 987 986 985 984 983 982 981 980 979 978 977 976 975 974 973 972 971 970 969 968 967 966 965 964 963 962 961 960 959 958 957 956 955 954 953 952 951 950 949 948 947 946 945 944 943 942 941 940 939 938 937 936 935 934 933 932 931 930 929 928 927 926 925 924 923 922 921 920 919 918 917 916 915 914 913 1631 1630 1629 1628 1627 1626 1625 1624 1623 1622 1621 1620 1619 1618 1617 1616 1615 1614 1613 1612 1611 1610 1609 1608 1607 1606 1605 1604 1603 1602 1601 1600 1599 1598 1597 1596 1595 1594 1593 1592 1591 1590 1589 1588 1587 1586 1585 1584 1583 1582 1581 1580 1579 1578 1577 1576 1575 1574 1573 1572 1571 1570 1569 1568 1567 1566 1565 1564 1563 1562 1561 1560 1559 1558 1557 1556 1555 1554 1553 1552 1551 1550 1549 1548 1547 1546 1545 1544 1543 1542 1541 1540 1539 1538 1537 1536 1535 1534 1533 1532 1531 1530 1529 1528 1527 1526 1525 1524 1523 1522 1521 1520 1519 1518 1517 1516 1515 1514 1513 1512 1511 1510 1509 1508 1507 1506 1505 1504 1503 1502 1501 1500 1499 1498 1497 1496 1495 1494 1493 1492 1491 1490 1489 1488 1487 1486 1485 1484 1483 1482 1481 1480 1479 1478 1477 1476 1475 1474 1473 1472 1471 1470 1469 1468 1467 1466 1465 1464 1463 1462 1461 1460 1459 1458 1457 1456 1455 1454 1453 1452 1451 1450 1449 1448 1447 1446 1445 1444 1443 1442 1441 1440 1439 1438 1437 1436 1435 1434 1433 1432 1431 1430 1429 1428 1427 1426 1425 1424 1423 1422 1421 1420 1419 1418 1417 1416 1415 1414 1413 1412 1411 1410 1409 1408 1407 1406 1405 1404 1403 1402 1401 1400 1399 1398 1397 1396 1395 1394 1393 1392 1391 1390 1389 1388 1387 1386 1385 1384 1383 1382 1381 1380 1379 1378 1377 1376 1375 1374 1373 1372 1371 1370 1369 1368 1367 1366 1365 1364 1363 1362 1361 1360 1359 1358 1357 1356 1355 1354 1353 1352 1351 1350 1349 1348 1347 1346 1345 1344 1343 1342 1341 1340 1339 1338 1337 1336 1335 1334 1333 1332 1331 1330 1329 1328 1327 1326 1325 1324 1323 1322 1321 1320 1319 1318 1317 1316 1315 1314 1313 1312 1311 1310 1309 1308 1307 1306 1305 1304 1303 1302 1301 1300 1299 1298 1297 1296 1295 1294 1293 1292 1291 1290 1289 1288 1287 1286 1285 1284 1283 1282 1281 1280 1279 1278 1277 1276 1275 1274 1273 1272 1271 1270 1269 1268 1267 1266 1265 1264 1263 1262 1261 1260 1259 1258 1257 1256 1255 1254 1253 1252 1251 1250 1249 1248 1247 1246 1245 1244 1243 1242 1241 1240 1239 1238 1237 1236 1235 1234 1233 1232 1231 1230 1229 1228 1227 1226 1225 1224 1223 1222 1221 1220 1219 1218 1217 1216 1215 1214 1213 1212 1211 1210 1209 1208 1207 1206 1205 1204 1203 1202 1201 1200 1199 1198 1197 1196 1195 1194 1193 1192 1191 1190 1189 1188 1187 1186 1185 1184 1183 1182 1181 1180 1179 1178 1177 1176 1175 1174 1173 1172 1171 1170 1169 1168 1167 1166 1165 1164 1163 1162 1161 1160 1159 1158 1157 1156 1155 1154 1153 1152 1151 1150 1149 1148 1147 1146 1145 1144 1143 1142 1141 1140 1139 1138 1137 1136 1135 1134 1133 1132 1131 1130 1129 1128 1127 1126 1125 1124 1123 1122 1121 1120 1119 1118 1117 1116 1115 1114 1113 1112 1111 1110 1109 1108 1107 1106 1105 1104 1103 1102 1101 1100 1099 1098 1097 1096 1095 1094 1093 1092 1091 1090 1089 1088 1087 1086 1085 1084 1083 1082 1081 1080 1079 1078 1077 1076 1075 1074 1073 1072 1071 1070 1069 1068 1067 1066 1065 1064 1063 1062 1061 1060 1059 1058 1057 1056 1055 1054 1053 1052 1051 1050 1049 1048 1047 1046 1045 1044 1043 1042 1041 1040 1039 1038 1037 1036 1035 1034 1033 1032 1031 1030 1029 1028 1027 1026 1025 1024 1023 1022 1021 1020 1019 1018 1017 1016 1015 1014 1013 1012 1011 1010 1009 1008 1007 1006 1005 1004 1003 1002 1001 1000 
